bcc:
3.187
0.5000000  0.5000000  0.000000 
 0.000000 0.500000  0.5000000 
0.500000  0.000000 0.5000000 
   1
Selective
direct
0 0 0 T T T


